num_offers = 20;
num_halls = 10;
start=[68,21,40,20,50,14,18,85,34,13,19,36,4,81,18,3,5,19,26,2];
end=[93,88,65,22,58,87,76,93,59,86,59,63,88,100,53,7,10,94,90,83];
price=[1974,6527,497,40,689,5485,4253,765,825,5698,1841,1470,6750,858,2678,308,70,4442,3929,3939];
requirement=[471,979,548,943,237,266,760,302,718,704,830,535,646,297,487,997,881,657,939,321];
capacity=[793,745,878,906,959,861,951,743,703,755];
